\ Model Super-Permutation_1
\ LP format - for model browsing. Use MPS format to capture full model detail.
\ Signature: 0x28fd23b7475499ea
Minimize
  f[1]
Subject To
 Eq.1__s=(1,),_j=1,_i=1: x[1] - y[(1,),1,1] = 1
 Eq.2a__s=(1,),_j=1,_i=1: y[(1,),1,1] - 1e+08 h[(1,),1,1] <= 0
 Eq.2b__s=(1,),_j=1,_i=1: y[(1,),1,1] - 1e+08 h[(1,),1,1] >= -1e+08
 Eq.2c__s=(1,),_j=1,_i=1: - y[(1,),1,1] + g[(1,),1,1] + 1e+08 h[(1,),1,1]
   <= 1e+08
 Eq.2d__s=(1,),_j=1,_i=1: - y[(1,),1,1] + 1e+08 g[(1,),1,1]
   - 1e+08 h[(1,),1,1] >= -1e+08
 Eq.2e__s=(1,),_j=1,_i=1: y[(1,),1,1] + g[(1,),1,1] - 1e+08 h[(1,),1,1]
   <= 0
 Eq.2f__s=(1,),_j=1,_i=1: y[(1,),1,1] + 1e+08 g[(1,),1,1]
   + 1e+08 h[(1,),1,1] >= 0
 Eq.3a__s=(1,),_j=1: g[(1,),1,1] + 1e+08 z[(1,),1] <= 1e+08
 Eq.3b__s=(1,),_j=1: g[(1,),1,1] + z[(1,),1] >= 1
 Eq.3c__s=(1,): z[(1,),1] >= 1
 Eq.5a__j=1: - x[1] + f[1] <= 0
 Eq.5b__j=1: x[1] - f[1] <= 0
Bounds
 x[1] <= 1
 -1 <= y[(1,),1,1] <= 1
Binaries
 f[1] g[(1,),1,1] h[(1,),1,1] z[(1,),1]
Generals
 x[1]
End
